Copyright (C) 2013-2015, Filipe Brandao
Build (method = -2)
  #dp: 21402
  Step-3' Graph: 922 vertices and 11147 arcs (0.11s)
  Step-4' Graph: 607 vertices and 10517 arcs (0.11s)
  #V4/#V3 = 0.66
  #A4/#A3 = 0.94
Ready! (0.11s)
Optimize a model with 732 rows, 10518 columns and 30350 nonzeros
Coefficient statistics:
  Matrix range    [1e+00, 1e+00]
  Objective range [1e+00, 1e+00]
  Bounds range    [1e+00, 2e+01]
  RHS range       [1e+00, 2e+01]
Found heuristic solution: objective 1101
Presolve removed 58 rows and 122 columns
Presolve time: 0.07s
Presolved: 674 rows, 10396 columns, 30042 nonzeros
Variable types: 0 continuous, 10396 integer (829 binary)
Optimize a model with 674 rows, 10396 columns and 30042 nonzeros
Coefficient statistics:
  Matrix range    [1e+00, 3e+00]
  Objective range [1e+00, 1e+00]
  Bounds range    [1e+00, 1e+04]
  RHS range       [1e+00, 4e+02]
Presolved: 674 rows, 10396 columns, 30042 nonzeros

Root barrier log...

Ordering time: 0.00s

Barrier statistics:
 AA' NZ     : 1.584e+04
 Factor NZ  : 4.680e+04 (roughly 5 MBytes of memory)
 Factor Ops : 5.533e+06 (less than 1 second per iteration)
 Threads    : 1

                  Objective                Residual
Iter       Primal          Dual         Primal    Dual     Compl     Time
   0   2.28874595e+04 -3.11216128e+05  3.90e+05 4.99e-02  1.54e+02     0s
   1   8.56072876e+03 -1.17225688e+05  8.60e+04 8.88e-16  3.53e+01     0s
   2   2.58113580e+03 -5.57293480e+04  1.12e+04 5.33e-15  6.31e+00     0s
   3   1.56662322e+03 -1.76066865e+04  1.86e+03 1.43e-03  1.37e+00     0s
   4   1.33299322e+03 -7.96803783e+03  3.48e+02 3.52e-04  5.14e-01     0s
   5   1.29034865e+03 -5.46603033e+03  2.25e+02 4.33e-15  3.61e-01     0s
   6   1.21725610e+03 -3.84119001e+03  1.50e+02 3.00e-15  2.65e-01     0s
   7   9.51594395e+02 -1.89123534e+03  2.18e+01 1.67e-15  1.39e-01     0s
   8   7.69903187e+02 -8.23964277e+02  1.13e+01 8.88e-16  7.76e-02     0s
   9   6.48129365e+02 -1.13230453e+02  5.56e+00 4.44e-16  3.70e-02     0s
  10   6.01679864e+02  2.50628466e+02  3.23e+00 3.97e-16  1.70e-02     0s
  11   5.83638100e+02  3.47915219e+02  2.28e+00 3.83e-16  1.14e-02     0s
  12   5.66241643e+02  4.39720607e+02  1.43e+00 4.24e-16  6.12e-03     0s
  13   5.54287823e+02  4.68982257e+02  7.04e-01 4.26e-16  4.11e-03     0s
  14   5.49171600e+02  4.79825826e+02  4.61e-01 4.21e-16  3.34e-03     0s
  15   5.46552234e+02  5.04933262e+02  3.55e-01 4.48e-16  2.00e-03     0s
  16   5.42044710e+02  5.16211523e+02  1.68e-01 4.26e-16  1.24e-03     0s
  17   5.39157750e+02  5.22157429e+02  7.39e-02 4.20e-16  8.16e-04     0s
  18   5.38815336e+02  5.25385451e+02  6.56e-02 4.20e-16  6.45e-04     0s
  19   5.38119585e+02  5.28242351e+02  4.85e-02 4.39e-16  4.74e-04     0s
  20   5.37104692e+02  5.31289713e+02  2.74e-02 3.80e-16  2.79e-04     0s
  21   5.36711330e+02  5.32885531e+02  1.97e-02 3.86e-16  1.84e-04     0s
  22   5.36218752e+02  5.33404458e+02  1.06e-02 4.03e-16  1.35e-04     0s
  23   5.36025959e+02  5.34282766e+02  7.43e-03 4.00e-16  8.36e-05     0s
  24   5.35885111e+02  5.34516760e+02  4.93e-03 4.93e-16  6.56e-05     0s
  25   5.35827992e+02  5.34919491e+02  4.08e-03 3.97e-16  4.36e-05     0s
  26   5.35693014e+02  5.35011875e+02  2.16e-03 4.60e-16  3.27e-05     0s
  27   5.35618525e+02  5.35173076e+02  1.21e-03 4.44e-16  2.14e-05     0s
  28   5.35551722e+02  5.35468708e+02  4.41e-04 3.64e-16  3.98e-06     0s
  29   5.35515659e+02  5.35496840e+02  9.31e-05 3.42e-16  9.03e-07     0s
  30   5.35508263e+02  5.35503868e+02  2.81e-05 4.06e-16  2.11e-07     0s
  31   5.35505426e+02  5.35504709e+02  4.65e-06 3.33e-16  3.44e-08     0s
  32   5.35504846e+02  5.35504819e+02  1.19e-07 3.93e-16  1.30e-09     0s
  33   5.35504831e+02  5.35504831e+02  1.04e-09 3.80e-16  7.61e-14     0s

Barrier solved model in 33 iterations and 0.25 seconds
Optimal objective 5.35504831e+02


Root relaxation: objective 5.355048e+02, 703 iterations, 0.17 seconds

    Nodes    |    Current Node    |     Objective Bounds      |     Work
 Expl Unexpl |  Obj  Depth IntInf | Incumbent    BestBd   Gap | It/Node Time

     0     0  535.50483    0   70 1101.00000  535.50483  51.4%     -    0s
H    0     0                     537.0000000  535.50483  0.28%     -    0s
H    0     0                     536.0000000  535.50483  0.09%     -    0s

Explored 0 nodes (1139 simplex iterations) in 0.41 seconds
Thread count was 1 (of 4 available processors)

Optimal solution found (tolerance 0.00e+00)
Best objective 5.360000000000e+02, best bound 5.360000000000e+02, gap 0.0%
Preprocessing time: 0.13 seconds
Gurobi run time: 0.41 seconds
Total run time: 0.54 seconds
Objective: 536
Solution:
4 x [i=1, i=89]
5 x [i=2, i=89]
9 x [i=2, i=90]
10 x [i=3, i=87]
2 x [i=4, i=113, i=122]
3 x [i=5, i=80]
1 x [i=5, i=114, i=117]
10 x [i=6, i=74]
4 x [i=6, i=75]
1 x [i=7, i=75]
10 x [i=8, i=73]
5 x [i=9, i=73]
3 x [i=10, i=72]
11 x [i=11, i=71]
1 x [i=11, i=72]
1 x [i=12, i=68]
6 x [i=12, i=69]
7 x [i=12, i=70]
12 x [i=13, i=66]
7 x [i=13, i=67]
2 x [i=14, i=65]
6 x [i=14, i=67]
11 x [i=15, i=63]
3 x [i=15, i=64]
4 x [i=15, i=65]
2 x [i=15, i=110, i=111]
5 x [i=16, i=62]
2 x [i=16, i=112, i=112]
5 x [i=17, i=108, i=115]
1 x [i=17, i=109]
8 x [i=17, i=111, i=111]
1 x [i=18, i=70]
3 x [i=18, i=106, i=116]
5 x [i=18, i=108, i=115]
4 x [i=19, i=60]
2 x [i=20, i=60]
11 x [i=20, i=61]
2 x [i=21, i=60]
5 x [i=21, i=108, i=112]
12 x [i=22, i=58]
2 x [i=22, i=104, i=117]
7 x [i=23, i=57]
1 x [i=23, i=58]
1 x [i=23, i=59]
1 x [i=23, i=103, i=118]
2 x [i=23, i=105, i=115]
6 x [i=23, i=107, i=113]
8 x [i=24, i=96, i=125]
1 x [i=24, i=105, i=114]
4 x [i=25, i=106, i=112]
1 x [i=25, i=122, i=122, i=125]
1 x [i=26, i=95, i=125]
2 x [i=26, i=98, i=122]
5 x [i=26, i=99, i=122]
8 x [i=26, i=102, i=118]
1 x [i=26, i=103, i=116]
7 x [i=27, i=56]
5 x [i=28, i=56]
5 x [i=28, i=103, i=115]
8 x [i=29, i=55]
3 x [i=30, i=53]
5 x [i=30, i=54]
4 x [i=31, i=52]
2 x [i=31, i=100, i=117]
5 x [i=32, i=52]
2 x [i=32, i=95, i=122]
10 x [i=33, i=52]
3 x [i=33, i=94, i=122]
2 x [i=34, i=91, i=125]
6 x [i=34, i=98, i=117]
3 x [i=34, i=100, i=116]
1 x [i=34, i=102, i=113]
15 x [i=35, i=51]
1 x [i=35, i=96, i=119]
9 x [i=36, i=92, i=121]
3 x [i=36, i=93, i=120]
1 x [i=36, i=96, i=121]
3 x [i=37, i=50]
5 x [i=38, i=49]
5 x [i=39, i=48]
6 x [i=39, i=49]
8 x [i=39, i=50]
7 x [i=40, i=46]
3 x [i=40, i=47]
1 x [i=40, i=87, i=125]
1 x [i=40, i=88, i=125]
4 x [i=41, i=45]
5 x [i=42, i=44]
1 x [i=42, i=85, i=125]
5 x [i=42, i=88, i=121]
7 x [i=43, i=44]
2 x [i=45, i=72, i=125]
6 x [i=45, i=76, i=123]
5 x [i=45, i=76, i=124]
2 x [i=55, i=77, i=116]
2 x [i=56, i=77, i=114]
3 x [i=70, i=84, i=103]
1 x [i=70, i=85, i=103]
1 x [i=71, i=72, i=107]
7 x [i=72, i=75, i=105]
6 x [i=72, i=80, i=103]
1 x [i=73, i=84, i=102]
1 x [i=73, i=106, i=116]
8 x [i=74, i=78, i=104]
1 x [i=74, i=83, i=102]
1 x [i=75, i=83, i=102]
1 x [i=75, i=85, i=101]
1 x [i=75, i=85, i=102]
8 x [i=76, i=83, i=101]
1 x [i=76, i=90, i=97]
3 x [i=77, i=79, i=103]
5 x [i=77, i=80, i=102]
2 x [i=77, i=88, i=99]
1 x [i=77, i=107, i=113, i=113]
4 x [i=78, i=90, i=96]
2 x [i=78, i=78, i=104]
3 x [i=80, i=89, i=93]
1 x [i=81, i=82, i=99]
9 x [i=81, i=87, i=95]
10 x [i=82, i=85, i=99]
3 x [i=82, i=90, i=92]
1 x [i=83, i=95, i=115, i=120]
2 x [i=83, i=83, i=99]
3 x [i=84, i=90, i=92]
5 x [i=85, i=89, i=92]
5 x [i=86, i=86, i=96]
1 x [i=89, i=89, i=89]
